21149.0
1 0 1 1 0 1 0 1 1 1 0 1 0 1 1 0 0 1 0 1 1 0 0 0 1 1 0 1 1 1 
20 11 20 2 20 11 2 9 28 17 9 8 8 20 3 14 14 17 5 11 2 0 9 3 5 8 19 24 24 24 5 25 13 25 20 20 5 9 0 14 0 14 24 8 24 14 7 13 27 8 29 14 14 5 13 20 17 27 11 14 0 5 20 11 11 11 9 0 24 24 13 20 11 17 9 8 24 20 14 24 20 7 20 17 19 17 17 7 20 5 2 24 17 11 17 9 2 3 25 13 8 17 17 25 2 29 17 11 14 28 14 14 2 11 11 27 5 24 24 24 5 8 25 13 8 0 5 24 0 29 0 11 5 5 8 14 7 5 20 17 0 8 13 14 8 25 25 5 2 5 